120
150
74
41
55
95
88
76
77
67
73
28
42
46
62
85
93
46
29
35
34
59
91
48
49
24
29
81
69
74
76
32
93
28
25
67
41
91
95
78
67
95
59
78
41
91
28
55
91
95
95
59
55
55
55
42
50
100
59
35
64
85
56
31
41
73
38
25
48
39
36
31
48
51
81
69
55
95
100
51
74
39
100
64
85
50
50
51
33
66
59
42
95
55
48
37
95
55
53
38
59
95
95
55
100
95
51
55
50
56
94
99
53
42
55
55
95
51
77
73
85
95
